SDVRP instances/p03/p03_7090_tsplib0_split0.vrp
NAME:.\SDVRP_split
BEST_KNOWN: 0
COMMENT: 0
DIMENSION: 712
CAPACITY: 200
EDGE_WEIGHT_FORMAT: FUNCTION
EDGE_WEIGHT_TYPE: EXACT_2D
NODE_COORD_SECTION
1 0.00000 0.00000
2 6 14
3 6 14
4 6 14
5 6 14
6 6 14
7 6 14
8 6 14
9 0 -18
10 0 -18
11 0 -18
12 0 -18
13 0 -18
14 0 -18
15 0 -18
16 0 -18
17 20 10
18 20 10
19 20 10
20 20 10
21 20 10
22 20 10
23 20 10
24 20 10
25 20 10
26 20 -15
27 20 -15
28 20 -15
29 20 -15
30 20 -15
31 -20 -5
32 -20 -5
33 -20 -5
34 -20 -5
35 -20 -5
36 -20 -5
37 -20 -5
38 -20 -5
39 -10 -5
40 -10 -5
41 -10 -5
42 -10 -5
43 -10 -5
44 -10 -5
45 -10 -5
46 -15 15
47 -15 15
48 -15 15
49 -15 15
50 -15 15
51 -15 15
52 -15 15
53 -15 15
54 -15 15
55 -15 15
56 -25 8
57 -25 8
58 -25 8
59 -25 8
60 -25 8
61 -25 8
62 20 25
63 20 25
64 20 25
65 20 25
66 20 25
67 20 25
68 20 25
69 20 25
70 -5 25
71 -5 25
72 -5 25
73 -5 25
74 -5 25
75 -15 30
76 -15 30
77 -15 30
78 -15 30
79 -15 30
80 -15 30
81 15 0
82 15 0
83 15 0
84 15 0
85 15 0
86 15 0
87 15 0
88 15 0
89 -5 -10
90 -5 -10
91 -5 -10
92 -5 -10
93 -5 -10
94 -5 -10
95 -5 -10
96 -5 -10
97 -5 -10
98 -20 -25
99 -20 -25
100 -20 -25
101 -20 -25
102 -5 -30
103 -5 -30
104 -5 -30
105 -5 -30
106 -5 -30
107 -5 -30
108 -5 -30
109 -5 -30
110 -25 -15
111 -25 -15
112 -25 -15
113 -25 -15
114 -25 -15
115 -25 -15
116 -30 -5
117 -30 -5
118 -30 -5
119 -30 -5
120 -30 -5
121 -30 -5
122 -15 5
123 -15 5
124 -15 5
125 -15 5
126 -20 25
127 -20 25
128 -20 25
129 -20 25
130 -20 25
131 -20 25
132 -20 25
133 10 30
134 10 30
135 10 30
136 10 30
137 10 30
138 10 -15
139 10 -15
140 10 -15
141 10 -15
142 10 -15
143 10 -15
144 10 -25
145 10 -25
146 10 -25
147 10 -25
148 10 -25
149 10 -25
150 10 -25
151 20 -30
152 20 -30
153 20 -30
154 20 -30
155 20 -30
156 20 -30
157 20 -30
158 30 0
159 30 0
160 30 0
161 30 0
162 30 0
163 30 0
164 30 -15
165 30 -15
166 30 -15
167 30 -15
168 30 -15
169 30 -15
170 10 -5
171 10 -5
172 10 -5
173 10 -5
174 10 -5
175 10 -5
176 10 -5
177 10 -5
178 10 -5
179 0 5
180 0 5
181 0 5
182 0 5
183 0 5
184 6 2
185 6 2
186 6 2
187 6 2
188 6 2
189 6 2
190 29 7
191 29 7
192 29 7
193 29 7
194 29 7
195 29 7
196 29 7
197 5 25
198 5 25
199 5 25
200 5 25
201 5 25
202 5 25
203 -4 17
204 -4 17
205 -4 17
206 -4 17
207 -4 17
208 -4 17
209 -4 17
210 0 34
211 0 34
212 0 34
213 0 34
214 0 34
215 0 34
216 18 17
217 18 17
218 18 17
219 18 17
220 18 17
221 18 17
222 18 17
223 30 20
224 30 20
225 30 20
226 30 20
227 30 20
228 30 20
229 30 20
230 30 20
231 28 30
232 28 30
233 28 30
234 28 30
235 28 30
236 28 30
237 28 30
238 -33 25
239 -33 25
240 -33 25
241 -33 25
242 -33 25
243 -33 25
244 -33 25
245 -33 25
246 -33 25
247 -33 25
248 -15 -15
249 -15 -15
250 -15 -15
251 -15 -15
252 -15 -15
253 -15 -15
254 -30 -30
255 -30 -30
256 -30 -30
257 -30 -30
258 -30 -30
259 -30 -30
260 -30 -30
261 -30 -30
262 -30 -30
263 -30 -30
264 25 -23
265 25 -23
266 25 -23
267 25 -23
268 25 -23
269 25 -23
270 25 -23
271 25 -23
272 25 -23
273 25 -23
274 5 -10
275 5 -10
276 5 -10
277 5 -10
278 5 -10
279 5 -10
280 5 -10
281 7 -28
282 7 -28
283 7 -28
284 7 -28
285 7 -28
286 7 -28
287 7 -28
288 7 -28
289 -11 -23
290 -11 -23
291 -11 -23
292 -11 -23
293 -11 -23
294 -12 -32
295 -12 -32
296 -12 -32
297 -12 -32
298 -12 -32
299 -12 -32
300 -12 -32
301 -24 -21
302 -24 -21
303 -24 -21
304 -24 -21
305 -24 -21
306 -24 -21
307 -24 -21
308 -29 3
309 -29 3
310 -29 3
311 -29 3
312 -29 3
313 -29 3
314 -29 3
315 -29 3
316 -33 13
317 -33 13
318 -33 13
319 -33 13
320 -33 13
321 -33 13
322 -27 21
323 -27 21
324 -27 21
325 -27 21
326 -27 21
327 -27 21
328 -27 21
329 -27 21
330 -27 21
331 -27 21
332 -22 17
333 -22 17
334 -22 17
335 -22 17
336 -22 17
337 -22 17
338 -22 17
339 -22 17
340 -22 17
341 -29 33
342 -29 33
343 -29 33
344 -29 33
345 -29 33
346 -29 33
347 -29 33
348 12 12
349 12 12
350 12 12
351 12 12
352 12 12
353 12 12
354 14 23
355 14 23
356 14 23
357 14 23
358 14 23
359 14 23
360 14 23
361 -8 8
362 -8 8
363 -8 8
364 -8 8
365 -8 8
366 -8 8
367 -8 8
368 2 -4
369 2 -4
370 2 -4
371 2 -4
372 2 -4
373 2 -4
374 22 -6
375 22 -6
376 22 -6
377 22 -6
378 22 -6
379 22 -6
380 22 -6
381 22 -6
382 28 -12
383 28 -12
384 28 -12
385 28 -12
386 28 -12
387 28 -12
388 28 -12
389 28 -12
390 28 -12
391 18 -23
392 18 -23
393 18 -23
394 18 -23
395 18 -23
396 18 -23
397 18 -23
398 18 -23
399 18 -23
400 -3 -23
401 -3 -23
402 -3 -23
403 -3 -23
404 -3 -23
405 -3 -23
406 1 -9
407 1 -9
408 1 -9
409 1 -9
410 1 -9
411 1 -9
412 1 -9
413 1 -9
414 -14 -11
415 -14 -11
416 -14 -11
417 -14 -11
418 -14 -11
419 -14 -11
420 -14 -11
421 -14 -11
422 -18 -1
423 -18 -1
424 -18 -1
425 -18 -1
426 -18 -1
427 -18 -1
428 -18 -1
429 -23 -11
430 -23 -11
431 -23 -11
432 -23 -11
433 -23 -11
434 -23 -11
435 -23 -11
436 -23 -11
437 -11 23
438 -11 23
439 -11 23
440 -11 23
441 -11 23
442 -8 34
443 -8 34
444 -8 34
445 -8 34
446 -8 34
447 -8 34
448 -20 42
449 -20 42
450 -20 42
451 -20 42
452 -20 42
453 -20 42
454 27 42
455 27 42
456 27 42
457 27 42
458 27 42
459 27 42
460 27 42
461 14 38
462 14 38
463 14 38
464 14 38
465 14 38
466 14 38
467 14 38
468 14 38
469 14 38
470 14 38
471 32 -30
472 32 -30
473 32 -30
474 32 -30
475 32 -30
476 32 -30
477 32 -30
478 21 4
479 21 4
480 21 4
481 21 4
482 21 4
483 21 4
484 2 12
485 2 12
486 2 12
487 2 12
488 2 12
489 2 12
490 2 12
491 2 12
492 2 12
493 2 12
494 2 21
495 2 21
496 2 21
497 2 21
498 2 21
499 2 21
500 2 21
501 22 33
502 22 33
503 22 33
504 22 33
505 22 33
506 22 33
507 22 33
508 22 33
509 22 33
510 12 -19
511 12 -19
512 12 -19
513 12 -19
514 12 -19
515 12 -19
516 12 -19
517 12 -19
518 9 -18
519 9 -18
520 9 -18
521 9 -18
522 9 -18
523 9 -18
524 9 -18
525 11 -22
526 11 -22
527 11 -22
528 11 -22
529 11 -22
530 11 -22
531 11 -22
532 11 -22
533 11 -22
534 11 -22
535 14 -24
536 14 -24
537 14 -24
538 14 -24
539 14 -24
540 14 7
541 14 7
542 14 7
543 14 7
544 14 7
545 14 7
546 14 7
547 18 8
548 18 8
549 18 8
550 18 8
551 18 8
552 18 8
553 26 17
554 26 17
555 26 17
556 26 17
557 26 17
558 26 17
559 26 17
560 26 17
561 22 13
562 22 13
563 22 13
564 22 13
565 22 13
566 21 2
567 21 2
568 21 2
569 21 2
570 21 2
571 21 2
572 20 19
573 20 19
574 20 19
575 20 19
576 20 19
577 20 19
578 20 19
579 -20 12
580 -20 12
581 -20 12
582 -20 12
583 -20 12
584 -20 12
585 -21 2
586 -21 2
587 -21 2
588 -21 2
589 -21 2
590 -21 2
591 -21 2
592 -21 2
593 -24 -4
594 -24 -4
595 -24 -4
596 -24 -4
597 -24 -4
598 -24 -4
599 -24 -4
600 -19 -13
601 -19 -13
602 -19 -13
603 -19 -13
604 -19 -13
605 -19 -13
606 -19 -13
607 -19 -13
608 -19 -13
609 -19 -13
610 -31 -17
611 -31 -17
612 -31 -17
613 -31 -17
614 -31 -17
615 -31 -17
616 -7 -17
617 -7 -17
618 -7 -17
619 -7 -17
620 -7 -17
621 -7 -17
622 -7 -17
623 -7 -17
624 -7 -17
625 -7 -17
626 -9 17
627 -9 17
628 -9 17
629 -9 17
630 -9 17
631 -9 17
632 -9 0
633 -9 0
634 -9 0
635 -9 0
636 -9 0
637 -9 0
638 -9 0
639 -4 32
640 -4 32
641 -4 32
642 -4 32
643 -4 32
644 -4 32
645 -20 -16
646 -20 -16
647 -20 -16
648 -20 -16
649 -20 -16
650 -20 -16
651 -13 -13
652 -13 -13
653 -13 -13
654 -13 -13
655 -13 -13
656 -13 -13
657 -17 -11
658 -17 -11
659 -17 -11
660 -17 -11
661 -17 -11
662 -17 -11
663 -17 -11
664 -17 -11
665 -9 -8
666 -9 -8
667 -9 -8
668 -9 -8
669 -9 -8
670 -9 -8
671 -9 -8
672 -9 -8
673 -9 -8
674 -10 -11
675 -10 -11
676 -10 -11
677 -10 -11
678 -10 -11
679 -10 -11
680 -10 -11
681 -10 -11
682 -13 -8
683 -13 -8
684 -13 -8
685 -13 -8
686 -13 -8
687 -13 -8
688 -10 -14
689 -10 -14
690 -10 -14
691 -10 -14
692 -10 -14
693 -16 -14
694 -16 -14
695 -16 -14
696 -16 -14
697 -16 -14
698 -16 -14
699 -16 -14
700 -16 -14
701 -16 -14
702 -15 -9
703 -15 -9
704 -15 -9
705 -15 -9
706 -15 -9
707 -17 -17
708 -17 -17
709 -17 -17
710 -17 -17
711 -17 -17
712 -17 -17
DEMAND_SECTION
1 0
2 40
3 40
4 40
5 40
6 10
7 2
8 2
9 40
10 40
11 40
12 20
13 10
14 2
15 2
16 1
17 40
18 40
19 40
20 20
21 2
22 2
23 2
24 2
25 1
26 40
27 40
28 40
29 40
30 2
31 40
32 40
33 40
34 40
35 10
36 2
37 2
38 2
39 40
40 40
41 40
42 40
43 10
44 2
45 2
46 40
47 40
48 40
49 20
50 10
51 2
52 2
53 2
54 2
55 1
56 40
57 40
58 40
59 20
60 2
61 2
62 40
63 40
64 40
65 20
66 2
67 2
68 2
69 2
70 40
71 40
72 40
73 20
74 1
75 40
76 40
77 40
78 40
79 10
80 2
81 40
82 40
83 40
84 20
85 10
86 2
87 2
88 1
89 40
90 40
91 40
92 20
93 10
94 2
95 2
96 2
97 2
98 40
99 40
100 40
101 40
102 40
103 40
104 40
105 40
106 2
107 2
108 2
109 2
110 40
111 40
112 40
113 20
114 10
115 1
116 40
117 40
118 40
119 20
120 2
121 1
122 40
123 40
124 40
125 40
126 40
127 40
128 40
129 40
130 10
131 2
132 2
133 40
134 40
135 40
136 40
137 1
138 40
139 40
140 40
141 20
142 2
143 2
144 40
145 40
146 40
147 40
148 2
149 2
150 1
151 40
152 40
153 40
154 40
155 2
156 2
157 2
158 40
159 40
160 40
161 40
162 2
163 1
164 40
165 40
166 40
167 40
168 10
169 1
170 40
171 40
172 40
173 40
174 2
175 2
176 2
177 2
178 1
179 40
180 40
181 40
182 20
183 1
184 40
185 40
186 40
187 40
188 10
189 1
190 40
191 40
192 40
193 20
194 2
195 2
196 2
197 40
198 40
199 40
200 20
201 2
202 2
203 40
204 40
205 40
206 40
207 10
208 2
209 2
210 40
211 40
212 40
213 40
214 10
215 2
216 40
217 40
218 40
219 40
220 10
221 2
222 1
223 40
224 40
225 40
226 20
227 2
228 2
229 2
230 2
231 40
232 40
233 40
234 40
235 10
236 2
237 1
238 40
239 40
240 40
241 20
242 10
243 2
244 2
245 2
246 2
247 1
248 40
249 40
250 40
251 40
252 10
253 1
254 40
255 40
256 40
257 20
258 10
259 2
260 2
261 2
262 2
263 1
264 40
265 40
266 40
267 20
268 10
269 2
270 2
271 2
272 2
273 1
274 40
275 40
276 40
277 40
278 10
279 2
280 1
281 40
282 40
283 40
284 20
285 2
286 2
287 2
288 1
289 40
290 40
291 40
292 20
293 2
294 40
295 40
296 40
297 40
298 2
299 2
300 1
301 40
302 40
303 40
304 40
305 2
306 2
307 2
308 40
309 40
310 40
311 40
312 10
313 2
314 2
315 1
316 40
317 40
318 40
319 20
320 10
321 1
322 40
323 40
324 40
325 20
326 10
327 2
328 2
329 2
330 2
331 1
332 40
333 40
334 40
335 20
336 10
337 2
338 2
339 2
340 1
341 40
342 40
343 40
344 40
345 10
346 2
347 1
348 40
349 40
350 40
351 40
352 2
353 2
354 40
355 40
356 40
357 40
358 2
359 2
360 2
361 40
362 40
363 40
364 40
365 2
366 2
367 2
368 40
369 40
370 40
371 20
372 2
373 1
374 40
375 40
376 40
377 40
378 10
379 2
380 2
381 2
382 40
383 40
384 40
385 40
386 2
387 2
388 2
389 2
390 1
391 40
392 40
393 40
394 40
395 2
396 2
397 2
398 2
399 1
400 40
401 40
402 40
403 20
404 10
405 2
406 40
407 40
408 40
409 40
410 2
411 2
412 2
413 2
414 40
415 40
416 40
417 20
418 10
419 2
420 2
421 2
422 40
423 40
424 40
425 20
426 10
427 2
428 1
429 40
430 40
431 40
432 40
433 10
434 2
435 2
436 1
437 40
438 40
439 40
440 20
441 10
442 40
443 40
444 40
445 20
446 10
447 2
448 40
449 40
450 40
451 20
452 10
453 1
454 40
455 40
456 40
457 20
458 10
459 2
460 2
461 40
462 40
463 40
464 20
465 10
466 2
467 2
468 2
469 2
470 1
471 40
472 40
473 40
474 40
475 10
476 2
477 2
478 40
479 40
480 40
481 20
482 2
483 1
484 40
485 40
486 40
487 40
488 10
489 2
490 2
491 2
492 2
493 1
494 40
495 40
496 40
497 40
498 10
499 2
500 2
501 40
502 40
503 40
504 40
505 10
506 2
507 2
508 2
509 1
510 40
511 40
512 40
513 40
514 10
515 2
516 2
517 1
518 40
519 40
520 40
521 40
522 10
523 2
524 1
525 40
526 40
527 40
528 40
529 10
530 2
531 2
532 2
533 2
534 1
535 40
536 40
537 40
538 20
539 2
540 40
541 40
542 40
543 20
544 10
545 2
546 1
547 40
548 40
549 40
550 40
551 2
552 1
553 40
554 40
555 40
556 40
557 2
558 2
559 2
560 2
561 40
562 40
563 40
564 40
565 2
566 40
567 40
568 40
569 40
570 10
571 2
572 40
573 40
574 40
575 40
576 2
577 2
578 2
579 40
580 40
581 40
582 20
583 10
584 1
585 40
586 40
587 40
588 40
589 2
590 2
591 2
592 1
593 40
594 40
595 40
596 40
597 2
598 2
599 1
600 40
601 40
602 40
603 40
604 10
605 2
606 2
607 2
608 2
609 1
610 40
611 40
612 40
613 40
614 10
615 1
616 40
617 40
618 40
619 40
620 10
621 2
622 2
623 2
624 2
625 1
626 40
627 40
628 40
629 40
630 10
631 2
632 40
633 40
634 40
635 40
636 10
637 2
638 2
639 40
640 40
641 40
642 20
643 2
644 2
645 40
646 40
647 40
648 40
649 10
650 2
651 40
652 40
653 40
654 40
655 2
656 1
657 40
658 40
659 40
660 20
661 2
662 2
663 2
664 1
665 40
666 40
667 40
668 40
669 10
670 2
671 2
672 2
673 1
674 40
675 40
676 40
677 40
678 2
679 2
680 2
681 1
682 40
683 40
684 40
685 40
686 10
687 1
688 40
689 40
690 40
691 40
692 10
693 40
694 40
695 40
696 20
697 10
698 2
699 2
700 2
701 1
702 40
703 40
704 40
705 40
706 10
707 40
708 40
709 40
710 20
711 2
712 2
DEPOT_SECTION
1
-1
EOF