SDVRP instances/p03/p03_7090_tsplib0_split0.sol
711 -1 353 354 356 355 -6 2 3 7 4 5 492 491 490 488 489 487 483 -11 8 9 10 15 13 14 12 405 410 -23 21 20 24 22 16 18 17 19 551 546 550 -26 381 383 384 382 -27 25 29 28 142 137 140 141 -36 33 30 35 34 32 31 37 -38 41 39 40 666 -44 43 42 433 432 429 431 428 434 430 435 -49 338 335 336 340 341 345 343 346 342 344 -50 53 51 54 48 52 45 47 46 360 366 -60 58 59 56 55 57 589 584 590 -64 63 68 67 61 571 573 575 576 577 351 352 -66 62 65 507 502 500 506 501 504 505 359 358 357 -69 73 441 444 445 443 442 446 -71 72 70 438 437 630 629 -74 76 78 77 439 436 440 -75 79 451 450 449 447 448 452 -82 81 80 566 568 -86 83 85 87 84 160 159 158 161 162 157 -88 690 689 688 687 -94 95 96 93 89 90 92 91 670 664 665 -99 97 100 98 289 -107 108 105 101 102 104 103 106 404 402 403 -113 112 110 114 111 109 602 604 -115 120 116 119 117 118 587 588 591 -123 124 122 121 363 -126 127 125 131 129 130 128 334 -133 466 464 463 468 465 469 462 460 467 461 -135 136 132 134 201 196 199 200 -139 509 510 511 512 -143 280 283 284 285 286 287 282 281 411 412 409 -148 147 146 144 145 149 528 532 529 526 533 530 531 516 513 515 514 -152 150 151 153 535 -154 156 155 473 471 474 475 472 476 470 266 -166 165 167 168 164 163 389 387 385 386 388 -173 175 170 169 171 172 174 176 177 -178 180 484 485 486 -179 348 350 347 349 -182 181 498 495 493 496 494 497 499 -183 188 187 184 185 186 -193 191 195 189 194 190 192 565 -198 197 212 210 209 -204 206 205 202 203 208 207 -211 214 213 643 640 639 642 638 641 -218 217 216 215 541 -219 220 221 230 234 233 232 236 235 231 -223 225 229 224 227 222 228 226 557 556 559 553 558 -243 237 244 242 241 238 239 240 245 246 330 331 -249 247 692 695 693 696 698 697 700 699 -251 248 252 646 647 644 648 649 417 419 418 -262 254 255 257 258 256 259 253 261 260 645 -265 270 269 264 271 268 272 263 267 138 370 -274 273 276 275 367 -288 290 399 401 400 -292 291 293 294 299 298 295 296 297 -301 306 304 302 300 305 303 -311 310 309 313 314 307 308 312 -317 320 319 315 318 316 339 332 -322 328 323 324 325 326 327 321 329 337 333 -361 626 628 627 625 -364 362 365 578 580 579 582 583 581 -369 368 406 408 407 -371 372 279 277 278 521 519 518 520 517 523 522 -377 375 376 374 373 378 379 380 -390 396 394 397 398 392 395 391 393 537 538 -415 414 413 651 650 -420 416 694 608 599 603 600 606 601 605 607 -421 422 423 586 585 -425 424 426 427 592 595 597 596 594 593 598 -457 454 456 458 459 455 453 508 503 -477 482 481 479 478 480 569 567 570 -524 525 527 534 536 -539 540 547 549 548 -545 544 542 543 564 562 561 560 563 -552 555 554 572 574 -611 614 609 610 613 612 -619 624 622 615 616 617 618 620 623 621 -631 633 635 636 637 632 634 -653 652 675 674 676 -655 654 250 706 708 707 711 709 710 691 -659 662 660 661 658 657 656 663 705 686 684 -668 671 667 672 669 673 677 680 678 679 683 682 685 -681 701 704 703 702 0 





OBJ=
4510.768
BEST_KNOWN=
0.000